
Value of objective function: 19979

Actual values of the variables:
x1                   32
x2                   2
x3                   1
x4                   0
x5                   0
x6                   0
x7                   0

Actual values of the constraints:
r_1                  119567
